results/x-10M/X-n157-k13.vrp_seed-2.out
16876	19288
