results/x-10M/X-n157-k13.vrp_seed-2.vrp.sol
Route #1: 92 137 7 28 66 94 86 132 111 102 96 59
Route #2: 41 110 54 121 21 135 73 106 3 42 32 143
Route #3: 61 56 152 105 95 55 115 6 35 4 67 17
Route #4: 47 5 153 76 136 112 89 81 119 2 57 88
Route #5: 71 149 8 150 156 24 43 141 64 63 13 148
Route #6: 72 48 33 84 79 74 30 22 155 25 138 34
Route #7: 16 103 65 87 97 62 142 128 26 120 14 49
Route #8: 15 147 118 75 20 68 36 93 99 69 122 38
Route #9: 126 1 117 9 108 40 80 146 78 125 139 70
Route #10: 18 107 52 134 10 39 58 29 114 109 60 12
Route #11: 131 133 50 154 98 123 53 144 85 140 31 23
Route #12: 37 116 19 46 145 127 104 130 124 44 27 101
Route #13: 129 91 100 51 90 83 45 77 11 82 113 151
Cost 16876.000000